Zirconium copper (2/1) - tetragonal part
   1.00000000000000     
     3.2292838256254512    0.0000000000000000    0.0000000000000000
     0.0000000000000000    3.2292838256254512   -0.0000000000000000
     0.0000000000000000   -0.0000000000000000   11.1789198612986720
  Cu              Zr            
     2     4
Direct
     0.0000000000000000    0.0000000000000000    0.0000000000000000
     0.5000000000000000    0.5000000000000000    0.5000000000000000
     0.0000000000000000    1.0000000000000000    0.3458839208347845
     0.0000000000000000    0.0000000000000000    0.6541161081652146
     0.5000000000000000    0.5000000000000000    0.8458838918347854
     0.5000000000000000    0.5000000000000000    0.1541160791652156
 
  0.00000000E+00  0.00000000E+00  0.00000000E+00
  0.00000000E+00  0.00000000E+00  0.00000000E+00
  0.00000000E+00  0.00000000E+00  0.00000000E+00
  0.00000000E+00  0.00000000E+00  0.00000000E+00
  0.00000000E+00  0.00000000E+00  0.00000000E+00
  0.00000000E+00  0.00000000E+00  0.00000000E+00
