Cu Zr                                   
   1.00000000000000     
    12.9123039245999998    0.0000000000000000    0.0000000000000000
     0.0000000000000000   12.9123039245999998    0.0000000000000000
     0.0000000000000000    0.0000000000000000   11.1855134964000005
  Cu              Zr            
    33    64
Direct
     0.0000003941931969    0.9999997170312762    0.9912431617724389
     0.0000002308399382    0.2584116134159826    0.9953906782167902
     0.0000002164025520    0.5000003022561013    0.9971663436089063
     0.0000001077761561    0.7415884780412262    0.9953956485867642
     0.2584118089114339    0.9999997038707743    0.9953907401631388
     0.2574863100059105    0.2574863660429454    0.9936070480542188
     0.2525681139442295    0.5000003707236971    0.9997764206646023
     0.2574877385878719    0.7425142763491037    0.9936089411587692
     0.4999999650729899    0.9999997530101117    0.9971662824530608
     0.4999999565633438    0.2525685393855090    0.9997772425210176
     0.4999998911164622    0.5000004012143419    0.0051332871446247
     0.4999997736433602    0.7474320725590092    0.9997758338829092
     0.7415878183510068    0.9999997061897715    0.9953954683623515
     0.7425139459986166    0.2574880239513083    0.9936089450219897
     0.7474318996220770    0.5000001881933060    0.9997751749516284
     0.7425126786018192    0.7425128498873855    0.9936110779920539
     0.1383856767971449    0.1383828204276004    0.5074412999395681
     0.1207284655403902    0.3645524389420886    0.4962542762006790
     0.1207287384277992    0.6354478644801175    0.4962552099236077
     0.1383848333847458    0.8616144203476833    0.5074438751659834
     0.3645522065312982    0.1207280630814283    0.4962538162239212
     0.3756208260895272    0.3756210979404039    0.4974865999427917
     0.3756206916509062    0.6243793918909293    0.4974858374517360
     0.3645526220373180    0.8792712844767817    0.4962534417198564
     0.6354474309096200    0.1207283694787862    0.4962547951688003
     0.6243789106302673    0.3756209204459151    0.4974863555588042
     0.6243787014357994    0.6243788502071540    0.4974801605074426
     0.6354472941091652    0.8792712188158173    0.4962544648363762
     0.8616143705738674    0.1383824910278711    0.5074424636110316
     0.8792716433805094    0.3645524946249275    0.4962538556114101
     0.8792713440820227    0.6354477363061657    0.4962547861424341
     0.8616152447389432    0.8616149022279019    0.5074450581280535
     0.0000000948955924    0.9999999581942765    0.2141094206855506
     0.0000000352198492    0.9999999433699249    0.4267784368261803
     0.9999998206951668    0.2394673738740577    0.3392249781924293
     0.0000001560337166    0.5000003827756285    0.3493641625813473
     0.9999999660197992    0.7605328553613596    0.3392250726133833
     0.2394672447131686    0.9999996033121945    0.3392248039987010
     0.2503228787906096    0.2503229165737189    0.3435031538984197
     0.2490673596598949    0.5000006362240743    0.3478289235392539
     0.2503225636869291    0.7496770150131216    0.3435036819432410
     0.5000001455035297    0.0000000734759615    0.3493640459949326
     0.5000005198667343    0.2490674056779080    0.3478288781602148
     0.4999992340680415    0.4999992806686190    0.3448609943714257
     0.4999995270061506    0.7509331187632561    0.3478285961251542
     0.7605326539948832    0.9999996935614786    0.3392251406186417
     0.7496768356138567    0.2503226409078972    0.3435037284185176
     0.7509330170253342    0.5000003922897481    0.3478286940345047
     0.7496774396431328    0.7496774296644092    0.3435038955431272
     0.9999999204907337    0.9999999098723773    0.6773086725712943
     0.0000000811634063    0.2473333424134324    0.6552337153581479
     0.9999999586115262    0.5000000406948342    0.6504911076458958
     0.0000000092483511    0.7526663932588430    0.6552345097308462
     0.2473336569963205    0.9999998723698834    0.6552339644517661
     0.2530421808526907    0.2530420604848729    0.6574644227308007
     0.2484548030372053    0.5000004462571913    0.6494786721087765
     0.2530427127343550    0.7469577608683426    0.6574650029052828
     0.4999999338014782    0.0000000492311243    0.6504913205034029
     0.5000002009663949    0.2484548039064916    0.6494787388781501
     0.5000004063999799    0.5000007482996808    0.6484944620861319
     0.5000004578986318    0.7515449296490079    0.6494782874149641
     0.7526662427632761    0.9999999702760569    0.6552345569291584
     0.7469578319146892    0.2530424693368602    0.6574649054189970
     0.7515447917738453    0.5000006523365922    0.6494783961043501
     0.7469570667868380    0.7469572016526883    0.6574651797438998
     0.1281191169035814    0.1281188778991943    0.8492995828474683
     0.1257427676269013    0.3772235184154487    0.8442185226516128
     0.1257424574189483    0.6227772129297644    0.8442192277617846
     0.1281189436887977    0.8718805869519456    0.8492996249844722
     0.3772235162954514    0.1257427906605572    0.8442187885192735
     0.3776981463251369    0.3776983079586473    0.8422545554552848
     0.3776979958564944    0.6223022096202142    0.8422550156779011
     0.3772235694499048    0.8742574862724890    0.8442181604640959
     0.6227769772946090    0.1257425918412359    0.8442195133679620
     0.6223019035478455    0.3776981675974930    0.8422550533294152
     0.6223020265522147    0.6223023871445693    0.8422555679850054
     0.6227769918132343    0.8742576300339275    0.8442188334704044
     0.8718807263391047    0.1281188177704244    0.8493001096023044
     0.8742575926460587    0.3772235934100984    0.8442182786021164
     0.8742577024779629    0.6227772876511922    0.8442189872977862
     0.8718808766805759    0.8718807661378277    0.8493001830946123
     0.1338333674477153    0.1338333240775169    0.1384966740952923
     0.1247173882418977    0.3774739202138896    0.1551327815636644
     0.1247177965590226    0.6225258167211641    0.1551335341399217
     0.1338336971601830    0.8661668255648181    0.1384973837156309
     0.3774738188457533    0.1247173051068027    0.1551329593492975
     0.3748706657015667    0.3748709411098601    0.1553588249433497
     0.3748708501430861    0.6251291334235848    0.1553596020721556
     0.3774738381919061    0.8752825966386806    0.1551329659325056
     0.6225256388710956    0.1247177626739527    0.1551334749680783
     0.6251291024366823    0.3748710195032128    0.1553596456537600
     0.6251289082842043    0.6251288807195792    0.1553604158656996
     0.6225256838877514    0.8752822089143277    0.1551334006857610
     0.8661667972660697    0.1338336486888321    0.1384971698764592
     0.8752826397000566    0.3774738948817301    0.1551326323717342
     0.8752822666588947    0.6225257458407695    0.1551333602157622
     0.8661666318608551    0.8661666461669135    0.1384978396248722
 
  0.00000000E+00  0.00000000E+00  0.00000000E+00
  0.00000000E+00  0.00000000E+00  0.00000000E+00
  0.00000000E+00  0.00000000E+00  0.00000000E+00
  0.00000000E+00  0.00000000E+00  0.00000000E+00
  0.00000000E+00  0.00000000E+00  0.00000000E+00
  0.00000000E+00  0.00000000E+00  0.00000000E+00
  0.00000000E+00  0.00000000E+00  0.00000000E+00
  0.00000000E+00  0.00000000E+00  0.00000000E+00
  0.00000000E+00  0.00000000E+00  0.00000000E+00
  0.00000000E+00  0.00000000E+00  0.00000000E+00
  0.00000000E+00  0.00000000E+00  0.00000000E+00
  0.00000000E+00  0.00000000E+00  0.00000000E+00
  0.00000000E+00  0.00000000E+00  0.00000000E+00
  0.00000000E+00  0.00000000E+00  0.00000000E+00
  0.00000000E+00  0.00000000E+00  0.00000000E+00
  0.00000000E+00  0.00000000E+00  0.00000000E+00
  0.00000000E+00  0.00000000E+00  0.00000000E+00
  0.00000000E+00  0.00000000E+00  0.00000000E+00
  0.00000000E+00  0.00000000E+00  0.00000000E+00
  0.00000000E+00  0.00000000E+00  0.00000000E+00
  0.00000000E+00  0.00000000E+00  0.00000000E+00
  0.00000000E+00  0.00000000E+00  0.00000000E+00
  0.00000000E+00  0.00000000E+00  0.00000000E+00
  0.00000000E+00  0.00000000E+00  0.00000000E+00
  0.00000000E+00  0.00000000E+00  0.00000000E+00
  0.00000000E+00  0.00000000E+00  0.00000000E+00
  0.00000000E+00  0.00000000E+00  0.00000000E+00
  0.00000000E+00  0.00000000E+00  0.00000000E+00
  0.00000000E+00  0.00000000E+00  0.00000000E+00
  0.00000000E+00  0.00000000E+00  0.00000000E+00
  0.00000000E+00  0.00000000E+00  0.00000000E+00
  0.00000000E+00  0.00000000E+00  0.00000000E+00
  0.00000000E+00  0.00000000E+00  0.00000000E+00
  0.00000000E+00  0.00000000E+00  0.00000000E+00
  0.00000000E+00  0.00000000E+00  0.00000000E+00
  0.00000000E+00  0.00000000E+00  0.00000000E+00
  0.00000000E+00  0.00000000E+00  0.00000000E+00
  0.00000000E+00  0.00000000E+00  0.00000000E+00
  0.00000000E+00  0.00000000E+00  0.00000000E+00
  0.00000000E+00  0.00000000E+00  0.00000000E+00
  0.00000000E+00  0.00000000E+00  0.00000000E+00
  0.00000000E+00  0.00000000E+00  0.00000000E+00
  0.00000000E+00  0.00000000E+00  0.00000000E+00
  0.00000000E+00  0.00000000E+00  0.00000000E+00
  0.00000000E+00  0.00000000E+00  0.00000000E+00
  0.00000000E+00  0.00000000E+00  0.00000000E+00
  0.00000000E+00  0.00000000E+00  0.00000000E+00
  0.00000000E+00  0.00000000E+00  0.00000000E+00
  0.00000000E+00  0.00000000E+00  0.00000000E+00
  0.00000000E+00  0.00000000E+00  0.00000000E+00
  0.00000000E+00  0.00000000E+00  0.00000000E+00
  0.00000000E+00  0.00000000E+00  0.00000000E+00
  0.00000000E+00  0.00000000E+00  0.00000000E+00
  0.00000000E+00  0.00000000E+00  0.00000000E+00
  0.00000000E+00  0.00000000E+00  0.00000000E+00
  0.00000000E+00  0.00000000E+00  0.00000000E+00
  0.00000000E+00  0.00000000E+00  0.00000000E+00
  0.00000000E+00  0.00000000E+00  0.00000000E+00
  0.00000000E+00  0.00000000E+00  0.00000000E+00
  0.00000000E+00  0.00000000E+00  0.00000000E+00
  0.00000000E+00  0.00000000E+00  0.00000000E+00
  0.00000000E+00  0.00000000E+00  0.00000000E+00
  0.00000000E+00  0.00000000E+00  0.00000000E+00
  0.00000000E+00  0.00000000E+00  0.00000000E+00
  0.00000000E+00  0.00000000E+00  0.00000000E+00
  0.00000000E+00  0.00000000E+00  0.00000000E+00
  0.00000000E+00  0.00000000E+00  0.00000000E+00
  0.00000000E+00  0.00000000E+00  0.00000000E+00
  0.00000000E+00  0.00000000E+00  0.00000000E+00
  0.00000000E+00  0.00000000E+00  0.00000000E+00
  0.00000000E+00  0.00000000E+00  0.00000000E+00
  0.00000000E+00  0.00000000E+00  0.00000000E+00
  0.00000000E+00  0.00000000E+00  0.00000000E+00
  0.00000000E+00  0.00000000E+00  0.00000000E+00
  0.00000000E+00  0.00000000E+00  0.00000000E+00
  0.00000000E+00  0.00000000E+00  0.00000000E+00
  0.00000000E+00  0.00000000E+00  0.00000000E+00
  0.00000000E+00  0.00000000E+00  0.00000000E+00
  0.00000000E+00  0.00000000E+00  0.00000000E+00
  0.00000000E+00  0.00000000E+00  0.00000000E+00
  0.00000000E+00  0.00000000E+00  0.00000000E+00
  0.00000000E+00  0.00000000E+00  0.00000000E+00
  0.00000000E+00  0.00000000E+00  0.00000000E+00
  0.00000000E+00  0.00000000E+00  0.00000000E+00
  0.00000000E+00  0.00000000E+00  0.00000000E+00
  0.00000000E+00  0.00000000E+00  0.00000000E+00
  0.00000000E+00  0.00000000E+00  0.00000000E+00
  0.00000000E+00  0.00000000E+00  0.00000000E+00
  0.00000000E+00  0.00000000E+00  0.00000000E+00
  0.00000000E+00  0.00000000E+00  0.00000000E+00
  0.00000000E+00  0.00000000E+00  0.00000000E+00
  0.00000000E+00  0.00000000E+00  0.00000000E+00
  0.00000000E+00  0.00000000E+00  0.00000000E+00
  0.00000000E+00  0.00000000E+00  0.00000000E+00
  0.00000000E+00  0.00000000E+00  0.00000000E+00
  0.00000000E+00  0.00000000E+00  0.00000000E+00
  0.00000000E+00  0.00000000E+00  0.00000000E+00
